/*********************************************
 * OPL 12.8.0.0 Data
 * Author: Lenovo
 * Creation Date: Sep 25, 2018 at 2:58:10 PM
 *********************************************/
Products = {"kluski" "capellini" "fettuccine"};
Resources = {"flour" "eggs"};

Product = #[
			"kluski":<100,0.6,0.8,[0.5 0.2]>,
			"capellini":<200,0.8,0.9,[0.4,0.4]>,
			"fettuccine":<300,0.3,0.4,[0.3,0.6]>
			]#;
Capacity = [20,40];